100 10
920 834
693 474
612 816
654 634
905 544
306 506
264 431
576 423
640 910
76 522
934 606
564 720
782 550
807 454
62 396
880 643
510 434
400 184
833 572
525 553
919 463
261 507
639 729
265 430
468 945
335 797
32 313
591 582
309 425
549 511
317 256
347 827
387 167
584 489
632 665
803 567
287 834
70 427
935 773
554 510
411 641
499 608
868 729
188 258
720 791
680 620
676 638
459 231
831 430
246 379
458 632
687 720
897 699
460 408
369 657
664 592
663 466
810 767
414 631
353 537
850 780
479 460
388 365
283 263
550 869
369 817
647 693
204 412
735 702
604 868
270 270
437 987
824 435
741 742
849 610
687 669
586 645
636 749
591 615
425 646
265 331
348 678
333 424
68 578
261 214
99 182
434 674
855 659
591 765
568 732
665 474
570 333
696 331
468 784
89 365
571 318
132 321
470 508
579 754
556 634
